# Solution for model micodag
# Objective value = 1.6184884795423887e+01
s_0_1 0
s_1_0 0
s_0_2 0
s_2_0 2.7985744696259340e-01
s_0_3 0
s_3_0 2.5225636294814846e-01
s_1_8 0
s_8_1 1.0470911321865426e+00
s_3_4 0
s_4_3 1.0160450202761506e-01
s_3_5 0
s_5_3 0
s_3_6 0
s_6_3 0
s_3_7 0
s_7_3 2.5221550484152111e-01
s_3_9 0
s_9_3 0
s_3_10 0
s_10_3 4.7768253429770224e-01
s_3_13 0
s_13_3 6.8976040802977279e-01
s_4_5 0
s_5_4 2.4509804236504573e-01
s_4_6 0
s_6_4 0.636830569403497
s_4_7 1.1465528681836803e+00
s_7_4 0
s_5_10 0
s_10_5 2.1134778401142151e-01
s_6_7 0
s_7_6 0
s_6_9 0
s_9_6 0
s_6_10 0
s_10_6 0
s_6_13 0
s_13_6 5.6838111088059540e-01
s_7_9 0
s_9_7 0
s_7_10 0
s_10_7 0
s_7_13 0
s_13_7 5.4951350921392761e-01
s_8_9 0
s_9_8 6.0298338053235767e-01
s_9_10 0
s_10_9 0
s_9_13 0
s_13_9 4.2660795697796061e-01
s_10_11 0
s_11_10 3.6714434796665478e+00
s_10_12 0
s_12_10 3.6714434796665478e+00
s_10_13 0
s_13_10 3.6714434796665478e+00
s_0_0 6.5687208776293371e-01
s_1_1 1.0555328844636818e+00
s_2_2 6.6262408436499065e-01
s_3_3 6.1825589680735638e-01
s_4_4 2.2230626783989380e+00
s_5_5 0.679016085989518
s_6_6 1.0417275445551208e+00
s_7_7 9.2909306414716974e-01
s_8_8 1.8628838802787653e+00
s_9_9 9.8000197043824055e-01
s_10_10 3.6714434796665478e+00
s_11_11 6.8450714747113439e-01
s_12_12 1.0678401286730077e+00
s_13_13 9.4049964430556976e-01
Gamma_0_0 8.1047645725396222e-01
Gamma_0_1 0
Gamma_0_2 0
Gamma_0_3 0
Gamma_0_4 0
Gamma_0_5 0
Gamma_0_6 0
Gamma_0_7 0
Gamma_0_8 0
Gamma_0_9 0
Gamma_0_10 0
Gamma_0_11 0
Gamma_0_12 0
Gamma_0_13 0
Gamma_1_0 0
Gamma_1_1 1.0273913005586925e+00
Gamma_1_2 0
Gamma_1_3 0
Gamma_1_4 0
Gamma_1_5 0
Gamma_1_6 0
Gamma_1_7 0
Gamma_1_8 0
Gamma_1_9 0
Gamma_1_10 0
Gamma_1_11 0
Gamma_1_12 0
Gamma_1_13 0
Gamma_2_0 -5.2901554510486193e-01
Gamma_2_1 0
Gamma_2_2 8.1401725065565511e-01
Gamma_2_3 0
Gamma_2_4 0
Gamma_2_5 0
Gamma_2_6 0
Gamma_2_7 0
Gamma_2_8 0
Gamma_2_9 0
Gamma_2_10 0
Gamma_2_11 0
Gamma_2_12 0
Gamma_2_13 0
Gamma_3_0 5.0225129462068041e-01
Gamma_3_1 0
Gamma_3_2 0
Gamma_3_3 7.8629250079557311e-01
Gamma_3_4 0
Gamma_3_5 0
Gamma_3_6 0
Gamma_3_7 0
Gamma_3_8 0
Gamma_3_9 0
Gamma_3_10 0
Gamma_3_11 0
Gamma_3_12 0
Gamma_3_13 0
Gamma_4_0 0
Gamma_4_1 0
Gamma_4_2 0
Gamma_4_3 -3.1875461099036057e-01
Gamma_4_4 1.4909938559225984e+00
Gamma_4_5 0
Gamma_4_6 0
Gamma_4_7 -1.0707720897481781e+00
Gamma_4_8 0
Gamma_4_9 0
Gamma_4_10 0
Gamma_4_11 0
Gamma_4_12 0
Gamma_4_13 0
Gamma_5_0 0
Gamma_5_1 0
Gamma_5_2 0
Gamma_5_3 0
Gamma_5_4 -0.495073774669035
Gamma_5_5 8.2402432366376088e-01
Gamma_5_6 0
Gamma_5_7 0
Gamma_5_8 0
Gamma_5_9 0
Gamma_5_10 0
Gamma_5_11 0
Gamma_5_12 0
Gamma_5_13 0
Gamma_6_0 0
Gamma_6_1 0
Gamma_6_2 0
Gamma_6_3 0
Gamma_6_4 7.9801664732228372e-01
Gamma_6_5 0
Gamma_6_6 1.0206505496765879e+00
Gamma_6_7 0
Gamma_6_8 0
Gamma_6_9 0
Gamma_6_10 0
Gamma_6_11 0
Gamma_6_12 0
Gamma_6_13 0
Gamma_7_0 0
Gamma_7_1 0
Gamma_7_2 0
Gamma_7_3 -0.502210618009538
Gamma_7_4 0
Gamma_7_5 0
Gamma_7_6 0
Gamma_7_7 9.6389473706788664e-01
Gamma_7_8 0
Gamma_7_9 0
Gamma_7_10 0
Gamma_7_11 0
Gamma_7_12 0
Gamma_7_13 0
Gamma_8_0 0
Gamma_8_1 1.0232747100297863e+00
Gamma_8_2 0
Gamma_8_3 0
Gamma_8_4 0
Gamma_8_5 0
Gamma_8_6 0
Gamma_8_7 0
Gamma_8_8 1.3648750420015618e+00
Gamma_8_9 0
Gamma_8_10 0
Gamma_8_11 0
Gamma_8_12 0
Gamma_8_13 0
Gamma_9_0 0
Gamma_9_1 0
Gamma_9_2 0
Gamma_9_3 0
Gamma_9_4 0
Gamma_9_5 0
Gamma_9_6 0
Gamma_9_7 0
Gamma_9_8 7.7652004515811290e-01
Gamma_9_9 9.8995048888226767e-01
Gamma_9_10 0
Gamma_9_11 0
Gamma_9_12 0
Gamma_9_13 0
Gamma_10_0 0
Gamma_10_1 0
Gamma_10_2 0
Gamma_10_3 -6.9114581261677566e-01
Gamma_10_4 0
Gamma_10_5 -4.5972577044518864e-01
Gamma_10_6 0
Gamma_10_7 0
Gamma_10_8 0
Gamma_10_9 0
Gamma_10_10 8.2790421477375620e-01
Gamma_10_11 0
Gamma_10_12 0
Gamma_10_13 0
Gamma_11_0 0
Gamma_11_1 0
Gamma_11_2 0
Gamma_11_3 0
Gamma_11_4 0
Gamma_11_5 0
Gamma_11_6 0
Gamma_11_7 0
Gamma_11_8 0
Gamma_11_9 0
Gamma_11_10 -4.8734206772755995e-01
Gamma_11_11 8.2734947118562563e-01
Gamma_11_12 0
Gamma_11_13 0
Gamma_12_0 0
Gamma_12_1 0
Gamma_12_2 0
Gamma_12_3 0
Gamma_12_4 0
Gamma_12_5 0
Gamma_12_6 0
Gamma_12_7 0
Gamma_12_8 0
Gamma_12_9 0
Gamma_12_10 -8.2996034164369226e-01
Gamma_12_11 0
Gamma_12_12 1.0333635026809338e+00
Gamma_12_13 0
Gamma_13_0 0
Gamma_13_1 0
Gamma_13_2 0
Gamma_13_3 8.3051815635166770e-01
Gamma_13_4 0
Gamma_13_5 0
Gamma_13_6 -7.5391054567541060e-01
Gamma_13_7 0.741291784126823
Gamma_13_8 0
Gamma_13_9 -6.5315232295228087e-01
Gamma_13_10 -7.4841283029453975e-01
Gamma_13_11 0
Gamma_13_12 0
Gamma_13_13 9.6979360912802992e-01
psi_0 6
psi_1 3
psi_2 0
psi_3 5
psi_4 3
psi_5 2
psi_6 1
psi_7 4
psi_8 2
psi_9 1
psi_10 1
psi_11 0
psi_12 0
psi_13 0
g_0_0 0
g_0_1 0
g_0_2 0
g_0_3 0
g_0_4 0
g_0_5 0
g_0_6 0
g_0_7 0
g_0_8 0
g_0_9 0
g_0_10 0
g_0_11 0
g_0_12 0
g_0_13 0
g_1_0 0
g_1_1 0
g_1_2 0
g_1_3 0
g_1_4 0
g_1_5 0
g_1_6 0
g_1_7 0
g_1_8 0
g_1_9 0
g_1_10 0
g_1_11 0
g_1_12 0
g_1_13 0
g_2_0 1
g_2_1 0
g_2_2 0
g_2_3 0
g_2_4 0
g_2_5 0
g_2_6 0
g_2_7 0
g_2_8 0
g_2_9 0
g_2_10 0
g_2_11 0
g_2_12 0
g_2_13 0
g_3_0 1
g_3_1 0
g_3_2 0
g_3_3 0
g_3_4 0
g_3_5 0
g_3_6 0
g_3_7 0
g_3_8 0
g_3_9 0
g_3_10 0
g_3_11 0
g_3_12 0
g_3_13 0
g_4_0 0
g_4_1 0
g_4_2 0
g_4_3 1
g_4_4 0
g_4_5 0
g_4_6 0
g_4_7 1
g_4_8 0
g_4_9 0
g_4_10 0
g_4_11 0
g_4_12 0
g_4_13 0
g_5_0 0
g_5_1 0
g_5_2 0
g_5_3 0
g_5_4 1
g_5_5 0
g_5_6 0
g_5_7 0
g_5_8 0
g_5_9 0
g_5_10 0
g_5_11 0
g_5_12 0
g_5_13 0
g_6_0 0
g_6_1 0
g_6_2 0
g_6_3 0
g_6_4 1
g_6_5 0
g_6_6 0
g_6_7 0
g_6_8 0
g_6_9 0
g_6_10 0
g_6_11 0
g_6_12 0
g_6_13 0
g_7_0 0
g_7_1 0
g_7_2 0
g_7_3 1
g_7_4 0
g_7_5 0
g_7_6 0
g_7_7 0
g_7_8 0
g_7_9 0
g_7_10 0
g_7_11 0
g_7_12 0
g_7_13 0
g_8_0 0
g_8_1 1
g_8_2 0
g_8_3 0
g_8_4 0
g_8_5 0
g_8_6 0
g_8_7 0
g_8_8 0
g_8_9 0
g_8_10 0
g_8_11 0
g_8_12 0
g_8_13 0
g_9_0 0
g_9_1 0
g_9_2 0
g_9_3 0
g_9_4 0
g_9_5 0
g_9_6 0
g_9_7 0
g_9_8 1
g_9_9 0
g_9_10 0
g_9_11 0
g_9_12 0
g_9_13 0
g_10_0 0
g_10_1 0
g_10_2 0
g_10_3 1
g_10_4 0
g_10_5 1
g_10_6 0
g_10_7 0
g_10_8 0
g_10_9 0
g_10_10 0
g_10_11 0
g_10_12 0
g_10_13 0
g_11_0 0
g_11_1 0
g_11_2 0
g_11_3 0
g_11_4 0
g_11_5 0
g_11_6 0
g_11_7 0
g_11_8 0
g_11_9 0
g_11_10 1
g_11_11 0
g_11_12 0
g_11_13 0
g_12_0 0
g_12_1 0
g_12_2 0
g_12_3 0
g_12_4 0
g_12_5 0
g_12_6 0
g_12_7 0
g_12_8 0
g_12_9 0
g_12_10 1
g_12_11 0
g_12_12 0
g_12_13 0
g_13_0 0
g_13_1 0
g_13_2 0
g_13_3 1
g_13_4 0
g_13_5 0
g_13_6 1
g_13_7 1
g_13_8 0
g_13_9 1
g_13_10 1
g_13_11 0
g_13_12 0
g_13_13 0
T_0 4.2026597083297190e-01
T_1 -5.4045743163115390e-02
T_2 4.1154744150497891e-01
T_3 4.8085283472499896e-01
T_4 -7.9888582999569735e-01
T_5 3.8711046099784596e-01
T_6 -4.0880435585464170e-02
T_7 7.3546368493325076e-02
T_8 -6.2212576025056876e-01
T_9 2.0200696668268847e-02
T_10 3.7771562785803781e-01
T_11 3.7905619242189914e-01
T_12 -6.5638037079267519e-02
T_13 6.1344008438283026e-02
